
Log started (V20.1.0.0) Sat Aug 20 05:22:31 2022


Problem 'pp.lp' read.
Read time = 0.00 sec. (0.00 ticks)
Version identifier: 20.1.0.0 | 2020-11-10 | 9bedb6d68
Tried aggregator 1 time.
LP Presolve eliminated 0 rows and 4 columns.
Reduced LP has 2 rows, 2 columns, and 4 nonzeros.
Presolve time = 0.00 sec. (0.00 ticks)

Iteration log . . .
Iteration:     1   Dual objective     =           171.000000

Dual simplex - Optimal:  Objective =  1.7900000000e+02
Solution time =    0.00 sec.  Iterations = 2 (0)
Deterministic time = 0.01 ticks  (5.51 ticks/sec)


Variable Name           Solution Value
x5                            5.000000
x6                            2.000000
All other variables matching '*' are 0.

Log started (V20.1.0.0) Sat Aug 20 05:36:42 2022


Problem 'pp.lp' read.
Read time = 0.00 sec. (0.00 ticks)
Version identifier: 20.1.0.0 | 2020-11-10 | 9bedb6d68
Tried aggregator 1 time.
No LP presolve or aggregator reductions.
Presolve time = 0.00 sec. (0.00 ticks)

Iteration log . . .
Iteration:     1   Dual objective     =           171.000000

Dual simplex - Optimal:  Objective =  3.0000000000e+02
Solution time =    0.00 sec.  Iterations = 3 (0)
Deterministic time = 0.01 ticks  (7.02 ticks/sec)


Variable Name           Solution Value
x2                            5.500000
x5                            2.250000
x6                            3.375000
All other variables matching '*' are 0.
